100
1000
199
199
199
199
198
198
196
196
195
194
194
194
194
194
193
193
193
192
192
191
191
191
190
190
189
189
188
188
187
186
186
184
184
183
183
183
180
179
179
179
178
178
177
177
177
176
175
175
175
174
173
172
172
172
171
171
170
170
170
170
170
168
168
167
167
167
167
167
167
167
166
166
165
164
164
162
162
161
160
159
159
158
156
156
156
156
156
154
154
154
153
153
152
152
151
150
150
150
150
150
